0000000000000000
0001111111110000
0001111111111000
0000000000011000
0000000000011000
0000000000011000
0000000000011000
0000000000011000
0000000000011000
0000000000011000
0000000000011000
0000000000011000
0011111111111000
0011111111110000
0000000000000000
0000000000000000
